results_rootrelaxation/bin012_050_004.srr.sol
solution status: optimal solution found
objective value:                                    0
_var94_                            0.0105977255346965 	(obj:0)
_var631_                            0.238705380269879 	(obj:0)
_var728_                            0.360589091447321 	(obj:0)
_var738_                           0.0997804474924094 	(obj:0)
_var743_                            0.441261070133466 	(obj:0)
_var744_                           0.0949502923255287 	(obj:0)
_var760_                            0.211194711004765 	(obj:0)
_var769_                             0.14056787626119 	(obj:0)
_var770_                           0.0156696351481375 	(obj:0)
_var772_                            0.129146212102526 	(obj:0)
_var773_                            0.183940597478839 	(obj:0)
_var774_                           0.0128623233095683 	(obj:0)
_var776_                            0.214909835458962 	(obj:0)
_var778_                            0.241705108912843 	(obj:0)
_var779_                            0.246115894121422 	(obj:0)
_var781_                           0.0583664306682795 	(obj:0)
_var782_                           0.0273577225744375 	(obj:0)
_var784_                           0.0766164245010763 	(obj:0)
_var786_                            0.302553222981479 	(obj:0)
_var787_                           0.0237955448109139 	(obj:0)
_var789_                            0.297239558921473 	(obj:0)
_var790_                           0.0321138712780875 	(obj:0)
_var791_                            0.172198238646178 	(obj:0)
_var793_                            0.093519500703063 	(obj:0)
_var794_                            0.279685225843053 	(obj:0)
_var797_                             0.29157559760219 	(obj:0)
_var800_                            0.131815378543061 	(obj:0)
_var801_                             0.29805363001702 	(obj:0)
_var802_                           0.0213237289390005 	(obj:0)
_var803_                             0.16777758590917 	(obj:0)
_var804_                              0.1317019019661 	(obj:0)
_var807_                            0.192431605693568 	(obj:0)
_var809_                            0.320033549596659 	(obj:0)
_var811_                            0.299884056540942 	(obj:0)
_var817_                            0.124646619138071 	(obj:0)
_var818_                            0.313733132693585 	(obj:0)
_var821_                            0.331573624096509 	(obj:0)
_var824_                           0.0890199077386027 	(obj:0)
_var825_                            0.469719022127932 	(obj:0)
_var826_                            0.136689937587883 	(obj:0)
_var829_                            0.242267558033399 	(obj:0)
_var830_                           0.0392776969188586 	(obj:0)
_var832_                           0.0749734810173418 	(obj:0)
_var835_                            0.433135160470683 	(obj:0)
_var836_                            0.184586920591066 	(obj:0)
_var837_                           0.0834200853541167 	(obj:0)
_var838_                            0.182643017490196 	(obj:0)
_var839_                            0.268455978488784 	(obj:0)
_var841_                            0.172050225719709 	(obj:0)
_var845_                            0.183940597478848 	(obj:0)
_var846_                            0.143148234945857 	(obj:0)
_var848_                           0.0599797715667191 	(obj:0)
_var849_                           0.0373387275822062 	(obj:0)
_var850_                             0.34634038039323 	(obj:0)
_var854_                            0.396941066186447 	(obj:0)
_var855_                           0.0293558970816805 	(obj:0)
_var858_                           0.0985618077312054 	(obj:0)
_var859_                            0.156355921750506 	(obj:0)
_var863_                            0.194543256777764 	(obj:0)
_var865_                            0.101561536374173 	(obj:0)
_var867_                            0.239776007104622 	(obj:0)
_var868_                          0.000606852998490476 	(obj:0)
_var880_                          0.00531859782421085 	(obj:0)
