results_rootrelaxation/bin012_050_004.srr.log
SCIP version 8.0.3.5 [precision: 8 byte] [memory: block] [mode: optimized] [LP solver: Soplex 6.0.1.3] [GitHash: 438792519e]
Copyright (c) 2002-2023 Zuse Institute Berlin (ZIB)

External libraries: 
  Readline 8.1         GNU library for command line editing (gnu.org/s/readline)
  Soplex 6.0.1.3       Linear Programming Solver developed at Zuse Institute Berlin (soplex.zib.de) [GitHash: 713be0fe]
  CppAD 20180000.0     Algorithmic Differentiation of C++ algorithms developed by B. Bell (github.com/coin-or/CppAD)
  ZLIB 1.2.11          General purpose compression library by J. Gailly and M. Adler (zlib.net)
  bliss 0.77           Computing Graph Automorphism Groups by T. Junttila and P. Kaski (www.tcs.hut.fi/Software/bliss/)

user parameter file <scip.set> not found - using default parameters

srr/relaxation = TRUE

read problem <instances/bin012_050_004.srr>
============

Original problem: 
original problem has 0 variables (0 bin, 0 int, 0 impl, 0 cont) and 77 constraints

presolving:
presolving (1 rounds: 1 fast, 1 medium, 1 exhaustive):
 0 deleted vars, 0 deleted constraints, 0 added constraints, 0 tightened bounds, 0 added holes, 0 changed sides, 0 changed coefficients
 0 implications, 0 cliques
presolved problem has 0 variables (0 bin, 0 int, 0 impl, 0 cont) and 77 constraints
     77 constraints of type <linear>
Presolving Time: 0.00

 time | node  | left  |LP iter|LP it/n|mem/heur|mdpt |vars |cons |rows |cuts |sepa|confs|strbr|  dualbound   | primalbound  |  gap   | compl. 
  0.0s|     1 |     0 |     1 |     - |   710k |   0 |   1 |  77 |  77 |   0 |  0 |   0 |   0 |      --      |      --      |    Inf | unknown
r 0.0s|     1 |     0 |  1079 |     - |simplero|   0 | 728 |  77 |  77 |   0 |  0 |   0 |   0 |      --      | 1.353501e+01 |    Inf | unknown
r 0.0s|     1 |     0 |  1118 |     - |simplero|   0 | 739 |  77 |  77 |   0 |  0 |   0 |   0 |      --      | 1.191138e+01 |    Inf | unknown
r 0.0s|     1 |     0 |  1155 |     - |simplero|   0 | 750 |  77 |  77 |   0 |  0 |   0 |   0 |      --      | 1.075829e+01 |    Inf | unknown
r 0.0s|     1 |     0 |  1211 |     - |simplero|   0 | 761 |  77 |  77 |   0 |  0 |   0 |   0 |      --      | 9.859644e+00 |    Inf | unknown
r 0.1s|     1 |     0 |  1257 |     - |simplero|   0 | 772 |  77 |  77 |   0 |  0 |   0 |   0 |      --      | 8.857445e+00 |    Inf | unknown
r 0.1s|     1 |     0 |  1314 |     - |simplero|   0 | 783 |  77 |  77 |   0 |  0 |   0 |   0 |      --      | 7.382719e+00 |    Inf | unknown
r 0.1s|     1 |     0 |  1368 |     - |simplero|   0 | 794 |  77 |  77 |   0 |  0 |   0 |   0 |      --      | 5.382763e+00 |    Inf | unknown
r 0.1s|     1 |     0 |  1386 |     - |simplero|   0 | 794 |  77 |  77 |   0 |  0 |   0 |   0 |      --      | 5.204386e+00 |    Inf | unknown
r 0.1s|     1 |     0 |  1389 |     - |simplero|   0 | 794 |  77 |  77 |   0 |  0 |   0 |   0 |      --      | 5.199441e+00 |    Inf | unknown
r 0.1s|     1 |     0 |  1451 |     - |simplero|   0 | 805 |  77 |  77 |   0 |  0 |   0 |   0 |      --      | 3.493661e+00 |    Inf | unknown
r 0.1s|     1 |     0 |  1464 |     - |simplero|   0 | 805 |  77 |  77 |   0 |  0 |   0 |   0 |      --      | 3.389876e+00 |    Inf | unknown
r 0.1s|     1 |     0 |  1466 |     - |simplero|   0 | 805 |  77 |  77 |   0 |  0 |   0 |   0 |      --      | 3.388540e+00 |    Inf | unknown
r 0.1s|     1 |     0 |  1487 |     - |simplero|   0 | 816 |  77 |  77 |   0 |  0 |   0 |   0 |      --      | 2.786762e+00 |    Inf | unknown
r 0.1s|     1 |     0 |  1500 |     - |simplero|   0 | 816 |  77 |  77 |   0 |  0 |   0 |   0 |      --      | 2.719422e+00 |    Inf | unknown
 time | node  | left  |LP iter|LP it/n|mem/heur|mdpt |vars |cons |rows |cuts |sepa|confs|strbr|  dualbound   | primalbound  |  gap   | compl. 
r 0.1s|     1 |     0 |  1515 |     - |simplero|   0 | 816 |  77 |  77 |   0 |  0 |   0 |   0 |      --      | 2.559571e+00 |    Inf | unknown
r 0.1s|     1 |     0 |  1541 |     - |simplero|   0 | 827 |  77 |  77 |   0 |  0 |   0 |   0 |      --      | 2.125438e+00 |    Inf | unknown
r 0.1s|     1 |     0 |  1545 |     - |simplero|   0 | 827 |  77 |  77 |   0 |  0 |   0 |   0 |      --      | 2.117437e+00 |    Inf | unknown
r 0.1s|     1 |     0 |  1549 |     - |simplero|   0 | 827 |  77 |  77 |   0 |  0 |   0 |   0 |      --      | 2.116641e+00 |    Inf | unknown
r 0.1s|     1 |     0 |  1584 |     - |simplero|   0 | 838 |  77 |  77 |   0 |  0 |   0 |   0 |      --      | 1.643987e+00 |    Inf | unknown
r 0.1s|     1 |     0 |  1606 |     - |simplero|   0 | 838 |  77 |  77 |   0 |  0 |   0 |   0 |      --      | 1.426394e+00 |    Inf | unknown
r 0.1s|     1 |     0 |  1618 |     - |simplero|   0 | 838 |  77 |  77 |   0 |  0 |   0 |   0 |      --      | 1.382644e+00 |    Inf | unknown
r 0.1s|     1 |     0 |  1653 |     - |simplero|   0 | 849 |  77 |  77 |   0 |  0 |   0 |   0 |      --      | 8.253794e-01 |    Inf | unknown
r 0.1s|     1 |     0 |  1659 |     - |simplero|   0 | 849 |  77 |  77 |   0 |  0 |   0 |   0 |      --      | 8.177144e-01 |    Inf | unknown
r 0.1s|     1 |     0 |  1692 |     - |simplero|   0 | 860 |  77 |  77 |   0 |  0 |   0 |   0 |      --      | 1.081531e-01 |    Inf | unknown
r 0.1s|     1 |     0 |  1696 |     - |simplero|   0 | 860 |  77 |  77 |   0 |  0 |   0 |   0 |      --      | 1.029395e-01 |    Inf | unknown
r 0.1s|     1 |     0 |  1697 |     - |simplero|   0 | 860 |  77 |  77 |   0 |  0 |   0 |   0 |      --      | 1.027892e-01 |    Inf | unknown
r 0.1s|     1 |     0 |  1720 |     - |simplero|   0 | 871 |  77 |  77 |   0 |  0 |   0 |   0 |      --      | 3.700856e-03 |    Inf | unknown
r 0.1s|     1 |     0 |  1721 |     - |simplero|   0 | 871 |  77 |  77 |   0 |  0 |   0 |   0 |      --      | 3.080986e-03 |    Inf | unknown
  0.1s|     1 |     0 |  1722 |     - |  4143k |   0 | 882 |  77 |  77 |   0 |  0 |   0 |   0 |      --      | 3.080986e-03 |    Inf | unknown
 time | node  | left  |LP iter|LP it/n|mem/heur|mdpt |vars |cons |rows |cuts |sepa|confs|strbr|  dualbound   | primalbound  |  gap   | compl. 
r 0.1s|     1 |     0 |  1722 |     - |simplero|   0 | 882 |  77 |  77 |   0 |  0 |   0 |   0 |      --      | 0.000000e+00 |    Inf | unknown
  0.1s|     1 |     0 |  1722 |     - |  4143k |   0 | 882 |  77 |  77 |   0 |  0 |   0 |   0 | 0.000000e+00 | 0.000000e+00 |   0.00%| unknown
  0.1s|     1 |     0 |  1722 |     - |  4143k |   0 | 882 |  77 |  77 |   0 |  0 |   0 |   0 | 0.000000e+00 | 0.000000e+00 |   0.00%| unknown

SCIP Status        : problem is solved [optimal solution found]
Solving Time (sec) : 0.07
Solving Nodes      : 1
Primal Bound       : +0.00000000000000e+00 (29 solutions)
Dual Bound         : +0.00000000000000e+00
Gap                : 0.00 %

written transformed problem to file <results_rootrelaxation/bin012_050_004.srr.lp>
written transformed problem to file <results_rootrelaxation/bin012_050_004.srr.cip>


SCIP version 8.0.3.5 [precision: 8 byte] [memory: block] [mode: optimized] [LP solver: Soplex 6.0.1.3] [GitHash: 438792519e]
Copyright (c) 2002-2023 Zuse Institute Berlin (ZIB)

External libraries: 
  Readline 8.1         GNU library for command line editing (gnu.org/s/readline)
  Soplex 6.0.1.3       Linear Programming Solver developed at Zuse Institute Berlin (soplex.zib.de) [GitHash: 713be0fe]
  CppAD 20180000.0     Algorithmic Differentiation of C++ algorithms developed by B. Bell (github.com/coin-or/CppAD)
  ZLIB 1.2.11          General purpose compression library by J. Gailly and M. Adler (zlib.net)
  bliss 0.77           Computing Graph Automorphism Groups by T. Junttila and P. Kaski (www.tcs.hut.fi/Software/bliss/)

user parameter file <scip.set> not found - using default parameters

srr/relaxation = TRUE

read problem <instances/bin012_050_004.srr>
============

Original problem: 
original problem has 0 variables (0 bin, 0 int, 0 impl, 0 cont) and 77 constraints

presolving:
presolving (1 rounds: 1 fast, 1 medium, 1 exhaustive):
 0 deleted vars, 0 deleted constraints, 0 added constraints, 0 tightened bounds, 0 added holes, 0 changed sides, 0 changed coefficients
 0 implications, 0 cliques
presolved problem has 0 variables (0 bin, 0 int, 0 impl, 0 cont) and 77 constraints
     77 constraints of type <linear>
Presolving Time: 0.00

 time | node  | left  |LP iter|LP it/n|mem/heur|mdpt |vars |cons |rows |cuts |sepa|confs|strbr|  dualbound   | primalbound  |  gap   | compl. 
  0.0s|     1 |     0 |     1 |     - |   710k |   0 |   1 |  77 |  77 |   0 |  0 |   0 |   0 |      --      |      --      |    Inf | unknown
r 0.0s|     1 |     0 |  1079 |     - |simplero|   0 | 728 |  77 |  77 |   0 |  0 |   0 |   0 |      --      | 1.353501e+01 |    Inf | unknown
r 0.1s|     1 |     0 |  1118 |     - |simplero|   0 | 739 |  77 |  77 |   0 |  0 |   0 |   0 |      --      | 1.191138e+01 |    Inf | unknown
r 0.1s|     1 |     0 |  1155 |     - |simplero|   0 | 750 |  77 |  77 |   0 |  0 |   0 |   0 |      --      | 1.075829e+01 |    Inf | unknown
r 0.1s|     1 |     0 |  1211 |     - |simplero|   0 | 761 |  77 |  77 |   0 |  0 |   0 |   0 |      --      | 9.859644e+00 |    Inf | unknown
r 0.1s|     1 |     0 |  1257 |     - |simplero|   0 | 772 |  77 |  77 |   0 |  0 |   0 |   0 |      --      | 8.857445e+00 |    Inf | unknown
r 0.1s|     1 |     0 |  1314 |     - |simplero|   0 | 783 |  77 |  77 |   0 |  0 |   0 |   0 |      --      | 7.382719e+00 |    Inf | unknown
r 0.1s|     1 |     0 |  1368 |     - |simplero|   0 | 794 |  77 |  77 |   0 |  0 |   0 |   0 |      --      | 5.382763e+00 |    Inf | unknown
r 0.1s|     1 |     0 |  1386 |     - |simplero|   0 | 794 |  77 |  77 |   0 |  0 |   0 |   0 |      --      | 5.204386e+00 |    Inf | unknown
r 0.1s|     1 |     0 |  1389 |     - |simplero|   0 | 794 |  77 |  77 |   0 |  0 |   0 |   0 |      --      | 5.199441e+00 |    Inf | unknown
r 0.1s|     1 |     0 |  1451 |     - |simplero|   0 | 805 |  77 |  77 |   0 |  0 |   0 |   0 |      --      | 3.493661e+00 |    Inf | unknown
r 0.1s|     1 |     0 |  1464 |     - |simplero|   0 | 805 |  77 |  77 |   0 |  0 |   0 |   0 |      --      | 3.389876e+00 |    Inf | unknown
r 0.1s|     1 |     0 |  1466 |     - |simplero|   0 | 805 |  77 |  77 |   0 |  0 |   0 |   0 |      --      | 3.388540e+00 |    Inf | unknown
r 0.1s|     1 |     0 |  1487 |     - |simplero|   0 | 816 |  77 |  77 |   0 |  0 |   0 |   0 |      --      | 2.786762e+00 |    Inf | unknown
r 0.1s|     1 |     0 |  1500 |     - |simplero|   0 | 816 |  77 |  77 |   0 |  0 |   0 |   0 |      --      | 2.719422e+00 |    Inf | unknown
 time | node  | left  |LP iter|LP it/n|mem/heur|mdpt |vars |cons |rows |cuts |sepa|confs|strbr|  dualbound   | primalbound  |  gap   | compl. 
r 0.1s|     1 |     0 |  1515 |     - |simplero|   0 | 816 |  77 |  77 |   0 |  0 |   0 |   0 |      --      | 2.559571e+00 |    Inf | unknown
r 0.1s|     1 |     0 |  1541 |     - |simplero|   0 | 827 |  77 |  77 |   0 |  0 |   0 |   0 |      --      | 2.125438e+00 |    Inf | unknown
r 0.1s|     1 |     0 |  1545 |     - |simplero|   0 | 827 |  77 |  77 |   0 |  0 |   0 |   0 |      --      | 2.117437e+00 |    Inf | unknown
r 0.1s|     1 |     0 |  1549 |     - |simplero|   0 | 827 |  77 |  77 |   0 |  0 |   0 |   0 |      --      | 2.116641e+00 |    Inf | unknown
r 0.1s|     1 |     0 |  1584 |     - |simplero|   0 | 838 |  77 |  77 |   0 |  0 |   0 |   0 |      --      | 1.643987e+00 |    Inf | unknown
r 0.1s|     1 |     0 |  1606 |     - |simplero|   0 | 838 |  77 |  77 |   0 |  0 |   0 |   0 |      --      | 1.426394e+00 |    Inf | unknown
r 0.1s|     1 |     0 |  1618 |     - |simplero|   0 | 838 |  77 |  77 |   0 |  0 |   0 |   0 |      --      | 1.382644e+00 |    Inf | unknown
r 0.1s|     1 |     0 |  1653 |     - |simplero|   0 | 849 |  77 |  77 |   0 |  0 |   0 |   0 |      --      | 8.253794e-01 |    Inf | unknown
r 0.1s|     1 |     0 |  1659 |     - |simplero|   0 | 849 |  77 |  77 |   0 |  0 |   0 |   0 |      --      | 8.177144e-01 |    Inf | unknown
r 0.1s|     1 |     0 |  1692 |     - |simplero|   0 | 860 |  77 |  77 |   0 |  0 |   0 |   0 |      --      | 1.081531e-01 |    Inf | unknown
r 0.1s|     1 |     0 |  1696 |     - |simplero|   0 | 860 |  77 |  77 |   0 |  0 |   0 |   0 |      --      | 1.029395e-01 |    Inf | unknown
r 0.1s|     1 |     0 |  1697 |     - |simplero|   0 | 860 |  77 |  77 |   0 |  0 |   0 |   0 |      --      | 1.027892e-01 |    Inf | unknown
r 0.1s|     1 |     0 |  1720 |     - |simplero|   0 | 871 |  77 |  77 |   0 |  0 |   0 |   0 |      --      | 3.700856e-03 |    Inf | unknown
r 0.1s|     1 |     0 |  1721 |     - |simplero|   0 | 871 |  77 |  77 |   0 |  0 |   0 |   0 |      --      | 3.080986e-03 |    Inf | unknown
  0.1s|     1 |     0 |  1722 |     - |  4143k |   0 | 882 |  77 |  77 |   0 |  0 |   0 |   0 |      --      | 3.080986e-03 |    Inf | unknown
 time | node  | left  |LP iter|LP it/n|mem/heur|mdpt |vars |cons |rows |cuts |sepa|confs|strbr|  dualbound   | primalbound  |  gap   | compl. 
r 0.1s|     1 |     0 |  1722 |     - |simplero|   0 | 882 |  77 |  77 |   0 |  0 |   0 |   0 |      --      | 0.000000e+00 |    Inf | unknown
  0.1s|     1 |     0 |  1722 |     - |  4143k |   0 | 882 |  77 |  77 |   0 |  0 |   0 |   0 | 0.000000e+00 | 0.000000e+00 |   0.00%| unknown
  0.1s|     1 |     0 |  1722 |     - |  4143k |   0 | 882 |  77 |  77 |   0 |  0 |   0 |   0 | 0.000000e+00 | 0.000000e+00 |   0.00%| unknown

SCIP Status        : problem is solved [optimal solution found]
Solving Time (sec) : 0.09
Solving Nodes      : 1
Primal Bound       : +0.00000000000000e+00 (29 solutions)
Dual Bound         : +0.00000000000000e+00
Gap                : 0.00 %

written transformed problem to file <results_rootrelaxation/bin012_050_004.srr.lp>
written transformed problem to file <results_rootrelaxation/bin012_050_004.srr.cip>

written solution information to file <results_rootrelaxation/bin012_050_004.srr.sol>



